
Gurobi 12.0.1 (win64, C++) logging started Thu Apr 17 16:42:43 2025

Set parameter Username
Set parameter LicenseID to value 2618655
Academic license - for non-commercial use only - expires 2026-02-05
Set parameter Threads to value 8
Set parameter LazyConstraints to value 1
Set parameter PreCrush to value 1
Set parameter Seed to value 0
Set parameter Cuts to value -1
Set parameter TimeLimit to value 28800
Set parameter NumericFocus to value 0
Set parameter SolutionLimit to value 10000
Gurobi Optimizer version 12.0.1 build v12.0.1rc0 (win64 - Windows Server 2022.0 (20348.2))

CPU model: AMD EPYC 7513 32-Core Processor, instruction set [SSE2|AVX|AVX2]
Thread count: 18 physical cores, 18 logical processors, using up to 8 threads

Non-default parameters:
SolutionLimit  10000
TimeLimit  28800
PreCrush  1
Threads  8
LazyConstraints  1

Optimize a model with 232 rows, 441 columns and 1260 nonzeros
Model fingerprint: 0x072e7f02
Variable types: 0 continuous, 441 integer (441 binary)
Coefficient statistics:
  Matrix range     [1e+00, 1e+00]
  Objective range  [6e+00, 6e+01]
  Bounds range     [1e+00, 1e+00]
  RHS range        [1e+00, 4e+00]

User MIP start produced solution with objective 391.134 (0.00s)
Loaded user MIP start with objective 391.134

Presolve removed 2 rows and 23 columns
Presolve time: 0.01s
Presolved: 230 rows, 418 columns, 1194 nonzeros
Variable types: 0 continuous, 418 integer (418 binary)

Root relaxation: objective 2.923362e+02, 67 iterations, 0.00 seconds (0.00 work units)

    Nodes    |    Current Node    |     Objective Bounds      |     Work
 Expl Unexpl |  Obj  Depth IntInf | Incumbent    BestBd   Gap | It/Node Time

     0     0  292.33623    0    -  391.13409  292.33623  25.3%     -    0s
     0     0  307.94455    0    -  391.13409  307.94455  21.3%     -    0s
     0     0  319.25762    0    -  391.13409  319.25762  18.4%     -    0s
     0     0  320.93098    0    -  391.13409  320.93098  17.9%     -    0s
     0     0  321.37940    0   32  391.13409  321.37940  17.8%     -    0s
     0     0  323.36129    0   30  391.13409  323.36129  17.3%     -    0s
     0     0  335.46779    0   22  391.13409  335.46779  14.2%     -    0s
     0     0  343.61357    0    -  391.13409  343.61357  12.1%     -    0s
     0     0  346.74415    0   22  391.13409  346.74415  11.3%     -    0s
     0     0  346.74415    0   18  391.13409  346.74415  11.3%     -    0s
     0     0  346.98725    0    -  391.13409  346.98725  11.3%     -    0s
     0     0  347.55254    0   32  391.13409  347.55254  11.1%     -    0s
     0     0  347.55254    0   25  391.13409  347.55254  11.1%     -    0s
     0     2  347.55254    0   25  391.13409  347.55254  11.1%     -    0s
   157   167  361.49443   17   53  391.13409  351.19535  10.2%  38.7    6s
*  164   167              19     362.2714829  351.19535  3.06%  37.5    7s

Cutting planes:
  Lazy constraints: 1748

Explored 682 nodes (17676 simplex iterations) in 8.49 seconds (1.19 work units)
Thread count was 8 (of 18 available processors)

Solution count 2: 362.271 391.134 

Optimal solution found (tolerance 1.00e-04)
Best objective 3.622714828967e+02, best bound 3.622625727544e+02, gap 0.0025%

User-callback calls 1702, time in user-callback 7.41 sec
### START EXACT APPROACH ###
ProblemVariant: 4
### START PREPROCESSING ###
## Start infeasible path procedure ## 
Deleted arcs: 2
Infeasible tail paths: 0
Infeasible 2-node combinations: 1
## Start extended infeasible path procedure ##
Deleted arcs: 2
Infeasible tail paths: 0
Infeasible 2-node combinations: 1
## Start start solution procedure ##
Start solution with 4 Vehicles and total costs 391.134 in 1.73499 s.
### END PREPROCESSING ###
Route 0 0-2-5-20-11-6-0 : weight util 0.952941 | volume util 0.553267 | infeasible with packing heuristic | feasible with CP model
Route 1 0-4-15-3-9-7-0 : weight util 0.988235 | volume util 0.324600 | feasible with packing heuristic | feasible with CP model
Route 2 0-16-18-12-10-19-1-0 : weight util 0.964706 | volume util 0.727356 | infeasible with packing heuristic | feasible with CP model
Route 3 0-17-13-14-8-0 : weight util 0.964706 | volume util 0.635511 | feasible with packing heuristic | feasible with CP model
